75 -3 44 25 55 31 10 -6 33 62 2 68 -7 53 11 38 -13 54 59 66 65 -17 40 12 26 -22 42 64 61 28 -29 37 20 70 60 71 69 36 -30 48 47 21 74 -32 9 39 72 58 -35 14 19 8 46 -45 5 15 57 27 52 -50 18 24 49 16 51 -63 23 56 41 43 1 73 -67 34 4 75 0

